(declare-const a Real)
(declare-const b Real)
(declare-const c Real)
(assert (= (+ a b c) 3))
(assert (not (<= (+ (pow (+ (* (/ 1 2) b) (* (/ 1 2) c)) 4) (* (/ -1 2) (pow b 4)) (* (/ -1 2) (pow c 4))) 0)))
(check-sat)
(get-model)
(exit)